c strEdges: 189  randomEdges: 441 
c degrees:  2  3 
c girth: 10 max: 8.032766  
c Hgirth mixed MAXCUT instance
c generated from an undirected graph
c to solve unweighted MaxCut
p cnf 140 1260
54 60 0
-54 -60 0
54 25 0
-54 -25 0
54 128 0
-54 -128 0
86 34 0
-86 -34 0
86 43 0
-86 -43 0
86 60 0
-86 -60 0
115 69 0
-115 -69 0
115 71 0
-115 -71 0
132 131 0
-132 -131 0
132 139 0
-132 -139 0
67 17 0
-67 -17 0
67 24 0
-67 -24 0
80 32 0
-80 -32 0
80 20 0
-80 -20 0
80 15 0
-80 -15 0
51 99 0
-51 -99 0
51 15 0
-51 -15 0
51 59 0
-51 -59 0
2 76 0
-2 -76 0
2 137 0
-2 -137 0
2 131 0
-2 -131 0
70 28 0
-70 -28 0
70 47 0
-70 -47 0
70 95 0
-70 -95 0
9 136 0
-9 -136 0
9 57 0
-9 -57 0
9 112 0
-9 -112 0
111 68 0
-111 -68 0
111 71 0
-111 -71 0
111 21 0
-111 -21 0
102 130 0
-102 -130 0
102 107 0
-102 -107 0
102 97 0
-102 -97 0
5 107 0
-5 -107 0
5 42 0
-5 -42 0
122 112 0
-122 -112 0
122 53 0
-122 -53 0
77 137 0
-77 -137 0
77 12 0
-77 -12 0
104 87 0
-104 -87 0
104 60 0
-104 -60 0
104 101 0
-104 -101 0
114 33 0
-114 -33 0
114 25 0
-114 -25 0
126 41 0
-126 -41 0
126 39 0
-126 -39 0
94 100 0
-94 -100 0
94 69 0
-94 -69 0
94 87 0
-94 -87 0
52 98 0
-52 -98 0
52 57 0
-52 -57 0
52 31 0
-52 -31 0
10 24 0
-10 -24 0
10 6 0
-10 -6 0
10 107 0
-10 -107 0
125 140 0
-125 -140 0
125 76 0
-125 -76 0
125 63 0
-125 -63 0
119 71 0
-119 -71 0
119 92 0
-119 -92 0
79 20 0
-79 -20 0
79 6 0
-79 -6 0
79 98 0
-79 -98 0
109 25 0
-109 -25 0
109 72 0
-109 -72 0
109 130 0
-109 -130 0
120 45 0
-120 -45 0
120 56 0
-120 -56 0
120 22 0
-120 -22 0
121 95 0
-121 -95 0
121 101 0
-121 -101 0
121 124 0
-121 -124 0
30 61 0
-30 -61 0
30 137 0
-30 -137 0
90 58 0
-90 -58 0
90 73 0
-90 -73 0
90 48 0
-90 -48 0
113 128 0
-113 -128 0
113 105 0
-113 -105 0
113 108 0
-113 -108 0
127 48 0
-127 -48 0
127 44 0
-127 -44 0
127 106 0
-127 -106 0
82 21 0
-82 -21 0
82 17 0
-82 -17 0
82 106 0
-82 -106 0
11 105 0
-11 -105 0
11 92 0
-11 -92 0
11 103 0
-11 -103 0
116 103 0
-116 -103 0
116 48 0
-116 -48 0
116 1 0
-116 -1 0
14 53 0
-14 -53 0
14 84 0
-14 -84 0
14 21 0
-14 -21 0
8 42 0
-8 -42 0
8 12 0
-8 -12 0
8 93 0
-8 -93 0
36 22 0
-36 -22 0
36 33 0
-36 -33 0
36 140 0
-36 -140 0
37 84 0
-37 -84 0
37 16 0
-37 -16 0
37 22 0
-37 -22 0
96 138 0
-96 -138 0
96 131 0
-96 -131 0
96 99 0
-96 -99 0
81 12 0
-81 -12 0
81 100 0
-81 -100 0
26 93 0
-26 -93 0
26 55 0
-26 -55 0
26 34 0
-26 -34 0
49 47 0
-49 -47 0
49 136 0
-49 -136 0
49 61 0
-49 -61 0
18 31 0
-18 -31 0
18 124 0
-18 -124 0
88 44 0
-88 -44 0
88 118 0
-88 -118 0
88 139 0
-88 -139 0
135 91 0
-135 -91 0
135 138 0
-135 -138 0
135 23 0
-135 -23 0
83 16 0
-83 -16 0
83 23 0
-83 -23 0
83 95 0
-83 -95 0
40 139 0
-40 -139 0
40 28 0
-40 -28 0
40 39 0
-40 -39 0
27 29 0
-27 -29 0
27 32 0
-27 -32 0
27 103 0
-27 -103 0
133 13 0
-133 -13 0
133 128 0
-133 -128 0
110 72 0
-110 -72 0
110 58 0
-110 -58 0
110 69 0
-110 -69 0
7 57 0
-7 -57 0
7 58 0
-7 -58 0
7 99 0
-7 -99 0
38 6 0
-38 -6 0
38 73 0
-38 -73 0
117 108 0
-117 -108 0
117 118 0
-117 -118 0
117 98 0
-117 -98 0
35 106 0
-35 -106 0
35 45 0
-35 -45 0
35 61 0
-35 -61 0
134 39 0
-134 -39 0
134 3 0
-134 -3 0
134 87 0
-134 -87 0
89 124 0
-89 -124 0
89 17 0
-89 -17 0
89 33 0
-89 -33 0
19 3 0
-19 -3 0
19 20 0
-19 -20 0
19 140 0
-19 -140 0
65 55 0
-65 -55 0
65 29 0
-65 -29 0
65 112 0
-65 -112 0
75 92 0
-75 -92 0
75 41 0
-75 -41 0
75 56 0
-75 -56 0
129 23 0
-129 -23 0
129 68 0
-129 -68 0
66 1 0
-66 -1 0
66 76 0
-66 -76 0
64 43 0
-64 -43 0
64 24 0
-64 -24 0
64 91 0
-64 -91 0
50 59 0
-50 -59 0
50 13 0
-50 -13 0
50 84 0
-50 -84 0
4 101 0
-4 -101 0
4 1 0
-4 -1 0
78 97 0
-78 -97 0
78 41 0
-78 -41 0
78 53 0
-78 -53 0
46 118 0
-46 -118 0
46 42 0
-46 -42 0
123 73 0
-123 -73 0
123 16 0
-123 -16 0
85 56 0
-85 -56 0
85 138 0
-85 -138 0
74 63 0
-74 -63 0
74 68 0
-74 -68 0
74 55 0
-74 -55 0
62 15 0
-62 -15 0
62 100 0
-62 -100 0
49 76 0
-49 -76 0
125 107 0
-125 -107 0
136 118 0
-136 -118 0
85 39 0
-85 -39 0
117 76 0
-117 -76 0
135 139 0
-135 -139 0
60 57 0
-60 -57 0
110 78 0
-110 -78 0
40 134 0
-40 -134 0
115 2 0
-115 -2 0
33 53 0
-33 -53 0
103 93 0
-103 -93 0
74 48 0
-74 -48 0
136 108 0
-136 -108 0
117 16 0
-117 -16 0
136 140 0
-136 -140 0
128 3 0
-128 -3 0
62 139 0
-62 -139 0
86 138 0
-86 -138 0
46 31 0
-46 -31 0
111 114 0
-111 -114 0
127 116 0
-127 -116 0
113 12 0
-113 -12 0
36 28 0
-36 -28 0
107 61 0
-107 -61 0
115 24 0
-115 -24 0
87 72 0
-87 -72 0
32 23 0
-32 -23 0
79 68 0
-79 -68 0
10 37 0
-10 -37 0
140 58 0
-140 -58 0
120 95 0
-120 -95 0
49 100 0
-49 -100 0
4 42 0
-4 -42 0
36 105 0
-36 -105 0
5 84 0
-5 -84 0
38 15 0
-38 -15 0
116 135 0
-116 -135 0
30 68 0
-30 -68 0
99 106 0
-99 -106 0
2 78 0
-2 -78 0
7 131 0
-7 -131 0
45 42 0
-45 -42 0
110 23 0
-110 -23 0
86 66 0
-86 -66 0
120 33 0
-120 -33 0
7 118 0
-7 -118 0
107 103 0
-107 -103 0
6 15 0
-6 -15 0
125 45 0
-125 -45 0
20 57 0
-20 -57 0
17 23 0
-17 -23 0
49 34 0
-49 -34 0
119 133 0
-119 -133 0
9 63 0
-9 -63 0
122 7 0
-122 -7 0
30 16 0
-30 -16 0
133 63 0
-133 -63 0
96 75 0
-96 -75 0
125 27 0
-125 -27 0
121 62 0
-121 -62 0
70 137 0
-70 -137 0
19 91 0
-19 -91 0
120 55 0
-120 -55 0
119 88 0
-119 -88 0
77 8 0
-77 -8 0
112 58 0
-112 -58 0
45 58 0
-45 -58 0
126 20 0
-126 -20 0
125 34 0
-125 -34 0
116 15 0
-116 -15 0
64 73 0
-64 -73 0
100 55 0
-100 -55 0
18 110 0
-18 -110 0
50 100 0
-50 -100 0
9 64 0
-9 -64 0
109 35 0
-109 -35 0
98 72 0
-98 -72 0
96 63 0
-96 -63 0
99 61 0
-99 -61 0
66 108 0
-66 -108 0
90 68 0
-90 -68 0
136 98 0
-136 -98 0
109 118 0
-109 -118 0
102 66 0
-102 -66 0
140 84 0
-140 -84 0
68 12 0
-68 -12 0
85 95 0
-85 -95 0
136 55 0
-136 -55 0
17 95 0
-17 -95 0
131 32 0
-131 -32 0
109 92 0
-109 -92 0
85 48 0
-85 -48 0
131 97 0
-131 -97 0
37 18 0
-37 -18 0
110 99 0
-110 -99 0
8 3 0
-8 -3 0
107 92 0
-107 -92 0
30 93 0
-30 -93 0
96 28 0
-96 -28 0
126 17 0
-126 -17 0
129 84 0
-129 -84 0
26 59 0
-26 -59 0
37 1 0
-37 -1 0
29 108 0
-29 -108 0
129 66 0
-129 -66 0
77 131 0
-77 -131 0
30 63 0
-30 -63 0
75 84 0
-75 -84 0
77 120 0
-77 -120 0
138 16 0
-138 -16 0
54 2 0
-54 -2 0
79 25 0
-79 -25 0
94 31 0
-94 -31 0
71 55 0
-71 -55 0
78 69 0
-78 -69 0
114 37 0
-114 -37 0
125 113 0
-125 -113 0
79 88 0
-79 -88 0
85 137 0
-85 -137 0
122 95 0
-122 -95 0
32 140 0
-32 -140 0
98 103 0
-98 -103 0
123 39 0
-123 -39 0
79 61 0
-79 -61 0
88 57 0
-88 -57 0
14 97 0
-14 -97 0
5 13 0
-5 -13 0
80 44 0
-80 -44 0
98 48 0
-98 -48 0
35 99 0
-35 -99 0
37 93 0
-37 -93 0
28 1 0
-28 -1 0
96 105 0
-96 -105 0
125 110 0
-125 -110 0
137 73 0
-137 -73 0
127 61 0
-127 -61 0
49 112 0
-49 -112 0
109 69 0
-109 -69 0
102 90 0
-102 -90 0
76 3 0
-76 -3 0
67 121 0
-67 -121 0
62 59 0
-62 -59 0
104 65 0
-104 -65 0
68 97 0
-68 -97 0
72 92 0
-72 -92 0
26 29 0
-26 -29 0
2 8 0
-2 -8 0
2 95 0
-2 -95 0
125 46 0
-125 -46 0
7 22 0
-7 -22 0
102 35 0
-102 -35 0
30 89 0
-30 -89 0
134 78 0
-134 -78 0
129 78 0
-129 -78 0
131 41 0
-131 -41 0
90 59 0
-90 -59 0
125 4 0
-125 -4 0
2 135 0
-2 -135 0
129 3 0
-129 -3 0
132 97 0
-132 -97 0
64 138 0
-64 -138 0
65 48 0
-65 -48 0
51 73 0
-51 -73 0
116 50 0
-116 -50 0
84 16 0
-84 -16 0
116 92 0
-116 -92 0
132 111 0
-132 -111 0
133 108 0
-133 -108 0
86 87 0
-86 -87 0
51 53 0
-51 -53 0
32 105 0
-32 -105 0
67 139 0
-67 -139 0
130 124 0
-130 -124 0
114 94 0
-114 -94 0
10 116 0
-10 -116 0
21 139 0
-21 -139 0
51 106 0
-51 -106 0
65 20 0
-65 -20 0
38 92 0
-38 -92 0
132 69 0
-132 -69 0
123 100 0
-123 -100 0
50 78 0
-50 -78 0
37 21 0
-37 -21 0
51 44 0
-51 -44 0
81 75 0
-81 -75 0
65 1 0
-65 -1 0
116 64 0
-116 -64 0
123 92 0
-123 -92 0
4 84 0
-4 -84 0
128 59 0
-128 -59 0
19 101 0
-19 -101 0
45 21 0
-45 -21 0
77 110 0
-77 -110 0
78 107 0
-78 -107 0
32 25 0
-32 -25 0
36 49 0
-36 -49 0
52 39 0
-52 -39 0
65 130 0
-65 -130 0
121 83 0
-121 -83 0
75 68 0
-75 -68 0
67 127 0
-67 -127 0
60 21 0
-60 -21 0
113 19 0
-113 -19 0
54 126 0
-54 -126 0
127 135 0
-127 -135 0
124 97 0
-124 -97 0
90 37 0
-90 -37 0
60 128 0
-60 -128 0
111 87 0
-111 -87 0
62 55 0
-62 -55 0
35 48 0
-35 -48 0
133 46 0
-133 -46 0
60 140 0
-60 -140 0
99 33 0
-99 -33 0
18 134 0
-18 -134 0
114 74 0
-114 -74 0
110 29 0
-110 -29 0
132 17 0
-132 -17 0
5 126 0
-5 -126 0
54 82 0
-54 -82 0
78 46 0
-78 -46 0
79 59 0
-79 -59 0
134 75 0
-134 -75 0
26 140 0
-26 -140 0
126 71 0
-126 -71 0
132 67 0
-132 -67 0
46 22 0
-46 -22 0
24 59 0
-24 -59 0
88 31 0
-88 -31 0
99 136 0
-99 -136 0
132 68 0
-132 -68 0
100 124 0
-100 -124 0
86 30 0
-86 -30 0
115 133 0
-115 -133 0
9 77 0
-9 -77 0
4 23 0
-4 -23 0
11 131 0
-11 -131 0
82 110 0
-82 -110 0
87 48 0
-87 -48 0
16 3 0
-16 -3 0
30 113 0
-30 -113 0
54 8 0
-54 -8 0
66 15 0
-66 -15 0
80 57 0
-80 -57 0
125 64 0
-125 -64 0
82 42 0
-82 -42 0
46 76 0
-46 -76 0
11 85 0
-11 -85 0
14 37 0
-14 -37 0
96 66 0
-96 -66 0
28 61 0
-28 -61 0
82 92 0
-82 -92 0
17 138 0
-17 -138 0
115 42 0
-115 -42 0
67 55 0
-67 -55 0
18 57 0
-18 -57 0
60 6 0
-60 -6 0
54 98 0
-54 -98 0
18 19 0
-18 -19 0
17 72 0
-17 -72 0
129 107 0
-129 -107 0
115 138 0
-115 -138 0
104 100 0
-104 -100 0
138 57 0
-138 -57 0
77 36 0
-77 -36 0
116 38 0
-116 -38 0
16 23 0
-16 -23 0
134 129 0
-134 -129 0
113 130 0
-113 -130 0
77 52 0
-77 -52 0
19 31 0
-19 -31 0
134 72 0
-134 -72 0
121 3 0
-121 -3 0
16 108 0
-16 -108 0
32 103 0
-32 -103 0
58 15 0
-58 -15 0
135 17 0
-135 -17 0
83 112 0
-83 -112 0
135 61 0
-135 -61 0
107 139 0
-107 -139 0
100 72 0
-100 -72 0
75 69 0
-75 -69 0
105 12 0
-105 -12 0
13 106 0
-13 -106 0
79 135 0
-79 -135 0
34 140 0
-34 -140 0
34 72 0
-34 -72 0
86 116 0
-86 -116 0
65 106 0
-65 -106 0
66 55 0
-66 -55 0
105 138 0
-105 -138 0
88 43 0
-88 -43 0
20 31 0
-20 -31 0
14 107 0
-14 -107 0
99 87 0
-99 -87 0
5 59 0
-5 -59 0
5 18 0
-5 -18 0
37 26 0
-37 -26 0
123 98 0
-123 -98 0
110 98 0
-110 -98 0
33 31 0
-33 -31 0
67 66 0
-67 -66 0
66 28 0
-66 -28 0
49 93 0
-49 -93 0
78 23 0
-78 -23 0
70 62 0
-70 -62 0
48 139 0
-48 -139 0
12 1 0
-12 -1 0
133 110 0
-133 -110 0
37 49 0
-37 -49 0
95 91 0
-95 -91 0
26 128 0
-26 -128 0
127 100 0
-127 -100 0
36 4 0
-36 -4 0
80 62 0
-80 -62 0
96 42 0
-96 -42 0
121 49 0
-121 -49 0
80 60 0
-80 -60 0
40 99 0
-40 -99 0
46 124 0
-46 -124 0
5 81 0
-5 -81 0
46 17 0
-46 -17 0
89 108 0
-89 -108 0
57 15 0
-57 -15 0
94 113 0
-94 -113 0
94 10 0
-94 -10 0
127 34 0
-127 -34 0
89 84 0
-89 -84 0
50 42 0
-50 -42 0
111 126 0
-111 -126 0
80 79 0
-80 -79 0
130 106 0
-130 -106 0
94 76 0
-94 -76 0
98 20 0
-98 -20 0
74 118 0
-74 -118 0
21 23 0
-21 -23 0
5 69 0
-5 -69 0
54 30 0
-54 -30 0
9 4 0
-9 -4 0
19 128 0
-19 -128 0
120 66 0
-120 -66 0
81 55 0
-81 -55 0
129 124 0
-129 -124 0
50 46 0
-50 -46 0
11 8 0
-11 -8 0
77 103 0
-77 -103 0
135 55 0
-135 -55 0
80 129 0
-80 -129 0
11 36 0
-11 -36 0
5 16 0
-5 -16 0
22 56 0
-22 -56 0
91 92 0
-91 -92 0
46 47 0
-46 -47 0
115 74 0
-115 -74 0
123 107 0
-123 -107 0
8 73 0
-8 -73 0
128 103 0
-128 -103 0
41 22 0
-41 -22 0
65 66 0
-65 -66 0
88 74 0
-88 -74 0
110 1 0
-110 -1 0
113 28 0
-113 -28 0
37 130 0
-37 -130 0
25 92 0
-25 -92 0
35 32 0
-35 -32 0
135 46 0
-135 -46 0
119 93 0
-119 -93 0
19 112 0
-19 -112 0
52 74 0
-52 -74 0
140 106 0
-140 -106 0
131 138 0
-131 -138 0
18 50 0
-18 -50 0
111 18 0
-111 -18 0
120 34 0
-120 -34 0
56 63 0
-56 -63 0
39 15 0
-39 -15 0
20 15 0
-20 -15 0
89 16 0
-89 -16 0
87 118 0
-87 -118 0
79 36 0
-79 -36 0
127 130 0
-127 -130 0
40 3 0
-40 -3 0
113 8 0
-113 -8 0
24 72 0
-24 -72 0
27 72 0
-27 -72 0
88 106 0
-88 -106 0
96 123 0
-96 -123 0
79 99 0
-79 -99 0
37 25 0
-37 -25 0
54 19 0
-54 -19 0
105 47 0
-105 -47 0
52 139 0
-52 -139 0
25 124 0
-25 -124 0
24 42 0
-24 -42 0
14 28 0
-14 -28 0
132 16 0
-132 -16 0
132 127 0
-132 -127 0
36 69 0
-36 -69 0
81 128 0
-81 -128 0
24 105 0
-24 -105 0
81 66 0
-81 -66 0
132 85 0
-132 -85 0
54 137 0
-54 -137 0
32 72 0
-32 -72 0
127 140 0
-127 -140 0
80 83 0
-80 -83 0
96 140 0
-96 -140 0
94 39 0
-94 -39 0
82 84 0
-82 -84 0
69 39 0
-69 -39 0
94 19 0
-94 -19 0
71 58 0
-71 -58 0
137 61 0
-137 -61 0
8 16 0
-8 -16 0
10 123 0
-10 -123 0
134 31 0
-134 -31 0
70 103 0
-70 -103 0
115 50 0
-115 -50 0
123 101 0
-123 -101 0
90 84 0
-90 -84 0
7 41 0
-7 -41 0
12 15 0
-12 -15 0
96 83 0
-96 -83 0
13 43 0
-13 -43 0
106 23 0
-106 -23 0
46 101 0
-46 -101 0
90 12 0
-90 -12 0
14 61 0
-14 -61 0
120 1 0
-120 -1 0
57 56 0
-57 -56 0
111 85 0
-111 -85 0
102 39 0
-102 -39 0
123 105 0
-123 -105 0
27 68 0
-27 -68 0
106 55 0
-106 -55 0
126 1 0
-126 -1 0
80 68 0
-80 -68 0
27 118 0
-27 -118 0
40 65 0
-40 -65 0
50 45 0
-50 -45 0
